ITEM: TIMESTEP
0
ITEM: NUMBER OF ATOMS
34
ITEM: BOX BOUNDS pp pp pp
-24.0513 24.0513
-24.0513 24.0513
-24.0513 24.0513
ITEM: ATOMS id type x y z
1974 4 -1.71795 1.71795 -1.71795
1988 2 -1.71795 5.15385 -1.71795
2002 3 -1.71795 8.58975 -1.71795
2072 3 -1.71795 1.71795 1.71795
2085 4 -3.4359 3.4359 0.0
2086 3 -1.71795 5.15385 1.71795
2099 1 -3.4359 6.8718 0.0
2100 3 -1.71795 8.58975 1.71795
2170 3 -1.71795 1.71795 5.15385
2183 4 -3.4359 3.4359 3.4359
2184 3 -1.71795 5.15385 5.15385
2197 1 -3.4359 6.8718 3.4359
2198 2 -1.71795 8.58975 5.15385
4719 1 0.0 3.4359 -3.4359
4733 4 0.0 6.8718 -3.4359
4706 4 1.71795 1.71795 -1.71795
4720 3 1.71795 5.15385 -1.71795
4734 1 1.71795 8.58975 -1.71795
4803 3 0.0 0.0 0.0
4804 4 1.71795 1.71795 1.71795
4818 1 1.71795 5.15385 1.71795
4819 1 3.4359 3.4359 0.0
4832 4 1.71795 8.58975 1.71795
4833 2 3.4359 6.8718 0.0
4845 2 0.0 10.3077 0.0
4901 2 0.0 0.0 3.4359
4902 3 1.71795 1.71795 5.15385
4916 2 1.71795 5.15385 5.15385
4917 2 3.4359 3.4359 3.4359
4930 4 1.71795 8.58975 5.15385
4931 1 3.4359 6.8718 3.4359
4943 1 0.0 10.3077 3.4359
5013 3 0.0 3.4359 6.8718
5027 1 0.0 6.8718 6.8718
